% semilla = 1
NUM_NODOS = 6 ;
NUM_ARISTAS = 15 ;
aristas =
[| 6 , 4  | 5 , 1  | 2 , 4  | 6 , 1  | 1 , 2
 | 5 , 6  | 5 , 2  | 3 , 5  | 6 , 3  | 5 , 4
 | 5 , 3  | 5 , 6  | 3 , 5  | 2 , 1  | 6 , 2  |];

